Geometry = GenFormat {
3 C
  O H

  1 1  0.00000000000E+00 -0.10000000000E+01  0.00000000000E+00
  2 2  0.00000000000E+00  0.00000000000E+00  0.78306400000E+00
  3 2  0.00000000000E+00  0.00000000000E+00 -0.78306400000E+00
}

Hamiltonian = DFTB {
  Scc = Yes
  SlaterKosterFiles = Type2FileNames {
    Prefix = "/opt/dftb+/slako/mio/mio-1-1/"
    Separator = "-"
    Suffix = ".skf"
  }
  MaxAngularMomentum {
    O = "p"
    H = "s"
  }
  Charge = 0
}

Options {}

Analysis {
  CalculateForces = Yes
}

ParserOptions {
  ParserVersion = 12
}
